instances/shortest_path/discrete_knapsack_uncertainty/nohadani_7_5.lp
\ Model nohadani_7_5
\ LP format - for model browsing. Use MPS format to capture full model detail.
\ Signature: 0x917f322750627386
Minimize
  69.6419413859206 y[0,1] + 23.76972864800943 y[0,2] + 29 y[0,3]
   + 55.80322571321482 y[0,4] + 39.05124837953327 y[0,5]
   + 56.60388679233962 y[0,6] + 69.6419413859206 y[1,0]
   + 56.08029957123981 y[1,2] + 65.12296062065974 y[1,3]
   + 61.35144660071187 y[1,4] + 57.48912940721924 y[1,5]
   + 57.56735185849702 y[1,6] + 23.76972864800943 y[2,0]
   + 56.08029957123981 y[2,1] + 11.40175425099138 y[2,3]
   + 65.73431371817918 y[2,4] + 16 y[2,5] + 65 y[2,6] + 29 y[3,0]
   + 65.12296062065974 y[3,1] + 11.40175425099138 y[3,2]
   + 12.72792206135786 y[3,5] + 55.80322571321482 y[4,0]
   + 61.35144660071187 y[4,1] + 65.73431371817918 y[4,2]
   + 4.242640687119285 y[4,6] + 39.05124837953327 y[5,0]
   + 57.48912940721924 y[5,1] + 16 y[5,2] + 12.72792206135786 y[5,3]
   + 56.60388679233962 y[6,0] + 57.56735185849702 y[6,1] + 65 y[6,2]
   + 4.242640687119285 y[6,4] + x[0,1] + x[0,2] + x[0,3] + x[0,4] + x[0,5]
   + x[0,6] + x[1,0] + x[1,2] + x[1,3] + x[1,4] + x[1,5] + x[1,6] + x[2,0]
   + x[2,1] + x[2,3] + x[2,4] + x[2,5] + x[2,6] + x[3,0] + x[3,1] + x[3,2]
   + x[3,5] + x[4,0] + x[4,1] + x[4,2] + x[4,6] + x[5,0] + x[5,1] + x[5,2]
   + x[5,3] + x[6,0] + x[6,1] + x[6,2] + x[6,4] + 6.96419413859206 r[0,1]
   + 2.376972864800943 r[0,2] + 2.9 r[0,3] + 5.580322571321482 r[0,4]
   + 3.905124837953327 r[0,5] + 5.660388679233963 r[0,6]
   + 6.96419413859206 r[1,0] + 5.608029957123982 r[1,2]
   + 6.512296062065975 r[1,3] + 6.135144660071187 r[1,4]
   + 5.748912940721924 r[1,5] + 5.756735185849703 r[1,6]
   + 2.376972864800943 r[2,0] + 5.608029957123982 r[2,1]
   + 1.140175425099138 r[2,3] + 6.573431371817918 r[2,4] + 1.6 r[2,5]
   + 6.5 r[2,6] + 2.9 r[3,0] + 6.512296062065975 r[3,1]
   + 1.140175425099138 r[3,2] + 1.272792206135786 r[3,5]
   + 5.580322571321482 r[4,0] + 6.135144660071187 r[4,1]
   + 6.573431371817918 r[4,2] + 0.4242640687119285 r[4,6]
   + 3.905124837953327 r[5,0] + 5.748912940721924 r[5,1] + 1.6 r[5,2]
   + 1.272792206135786 r[5,3] + 5.660388679233963 r[6,0]
   + 5.756735185849703 r[6,1] + 6.5 r[6,2] + 0.4242640687119285 r[6,4]
Subject To
 flow_cons_inner_nodes[0]: - y[0,1] - y[0,2] - y[0,3] - y[0,4] - y[0,5]
   - y[0,6] + y[1,0] + y[2,0] + y[3,0] + y[4,0] + y[5,0] + y[6,0] = 0
 flow_cons_inner_nodes[1]: y[0,1] - y[1,0] - y[1,2] - y[1,3] - y[1,4]
   - y[1,5] - y[1,6] + y[2,1] + y[3,1] + y[4,1] + y[5,1] + y[6,1] = 0
 flow_cons_inner_nodes[2]: y[0,2] + y[1,2] - y[2,0] - y[2,1] - y[2,3]
   - y[2,4] - y[2,5] - y[2,6] + y[3,2] + y[4,2] + y[5,2] + y[6,2] = 0
 flow_cons_inner_nodes[3]: y[0,3] + y[1,3] + y[2,3] - y[3,0] - y[3,1]
   - y[3,2] - y[3,5] + y[5,3] = 0
 flow_cons_inner_nodes[6]: y[0,6] + y[1,6] + y[2,6] + y[4,6] - y[6,0]
   - y[6,1] - y[6,2] - y[6,4] = 0
 flow_cons_source: - y[0,4] - y[1,4] - y[2,4] + y[4,0] + y[4,1] + y[4,2]
   + y[4,6] - y[6,4] = 1
 flow_cons_target: y[0,5] + y[1,5] + y[2,5] + y[3,5] - y[5,0] - y[5,1]
   - y[5,2] - y[5,3] = 1
 primal_lower: 0.4720901533709098 x[0,1] + 3.242222335581655 x[0,2]
   + 0.986685603788486 x[0,3] + 2.572581882589551 x[0,4]
   + 0.0770844740038335 x[0,5] + 1.263233140780551 x[0,6]
   + 3.090046244567082 x[1,0] + 0.8190036338644083 x[1,2]
   + 2.954584553466416 x[1,3] + 0.1631933076307855 x[1,4]
   + 0.1621659135943411 x[1,5] + 0.7660424193870037 x[1,6]
   + 4.028179577240456 x[2,0] + 1.48318036376841 x[2,1]
   + 4.02782112101263 x[2,3] + 2.17850153287841 x[2,4]
   + 1.965746340576937 x[2,5] + 2.033088952741168 x[2,6]
   + 2.161176807547325 x[3,0] + 0.6925670273515141 x[3,1]
   + 1.785016630362576 x[3,2] + 2.68253338949549 x[3,5]
   + 3.032923679122163 x[4,0] + 1.191609311400472 x[4,1]
   + 0.0183720633239307 x[4,2] + 2.809973658731035 x[4,6]
   + 1.013578861608169 x[5,0] + 2.318239321988968 x[5,1]
   + 0.5008286965358769 x[5,2] + 0.8747340977293085 x[5,3]
   + 0.8240442491427402 x[6,0] + 2.449782753245741 x[6,1]
   + 1.340471483435778 x[6,2] + 0.4864898746626494 x[6,4] + 94 u[0,1]
   + 99 u[0,2] + 61 u[0,3] + 82 u[0,4] + 35 u[0,5] + 20 u[0,6] + 36 u[1,0]
   + 74 u[1,2] + 16 u[1,3] + 21 u[1,4] + 10 u[1,5] + 2 u[1,6] + 59 u[2,0]
   + 7 u[2,1] + 99 u[2,3] + 43 u[2,4] + 40 u[2,5] + 51 u[2,6] + 56 u[3,0]
   + 41 u[3,1] + 36 u[3,2] + 18 u[3,5] + 39 u[4,0] + 89 u[4,1] + 23 u[4,2]
   + 43 u[4,6] + 49 u[5,0] + 34 u[5,1] + 60 u[5,2] + 46 u[5,3] + 20 u[6,0]
   + 66 u[6,1] + 30 u[6,2] + 36 u[6,4] <= 139
 mccormick1[0,1]: - u[0,1] + r[0,1] <= 0
 mccormick1[0,2]: - u[0,2] + r[0,2] <= 0
 mccormick1[0,3]: - u[0,3] + r[0,3] <= 0
 mccormick1[0,4]: - u[0,4] + r[0,4] <= 0
 mccormick1[0,5]: - u[0,5] + r[0,5] <= 0
 mccormick1[0,6]: - u[0,6] + r[0,6] <= 0
 mccormick1[1,0]: - u[1,0] + r[1,0] <= 0
 mccormick1[1,2]: - u[1,2] + r[1,2] <= 0
 mccormick1[1,3]: - u[1,3] + r[1,3] <= 0
 mccormick1[1,4]: - u[1,4] + r[1,4] <= 0
 mccormick1[1,5]: - u[1,5] + r[1,5] <= 0
 mccormick1[1,6]: - u[1,6] + r[1,6] <= 0
 mccormick1[2,0]: - u[2,0] + r[2,0] <= 0
 mccormick1[2,1]: - u[2,1] + r[2,1] <= 0
 mccormick1[2,3]: - u[2,3] + r[2,3] <= 0
 mccormick1[2,4]: - u[2,4] + r[2,4] <= 0
 mccormick1[2,5]: - u[2,5] + r[2,5] <= 0
 mccormick1[2,6]: - u[2,6] + r[2,6] <= 0
 mccormick1[3,0]: - u[3,0] + r[3,0] <= 0
 mccormick1[3,1]: - u[3,1] + r[3,1] <= 0
 mccormick1[3,2]: - u[3,2] + r[3,2] <= 0
 mccormick1[3,5]: - u[3,5] + r[3,5] <= 0
 mccormick1[4,0]: - u[4,0] + r[4,0] <= 0
 mccormick1[4,1]: - u[4,1] + r[4,1] <= 0
 mccormick1[4,2]: - u[4,2] + r[4,2] <= 0
 mccormick1[4,6]: - u[4,6] + r[4,6] <= 0
 mccormick1[5,0]: - u[5,0] + r[5,0] <= 0
 mccormick1[5,1]: - u[5,1] + r[5,1] <= 0
 mccormick1[5,2]: - u[5,2] + r[5,2] <= 0
 mccormick1[5,3]: - u[5,3] + r[5,3] <= 0
 mccormick1[6,0]: - u[6,0] + r[6,0] <= 0
 mccormick1[6,1]: - u[6,1] + r[6,1] <= 0
 mccormick1[6,2]: - u[6,2] + r[6,2] <= 0
 mccormick1[6,4]: - u[6,4] + r[6,4] <= 0
 mccormick2[0,1]: - y[0,1] + r[0,1] <= 0
 mccormick2[0,2]: - y[0,2] + r[0,2] <= 0
 mccormick2[0,3]: - y[0,3] + r[0,3] <= 0
 mccormick2[0,4]: - y[0,4] + r[0,4] <= 0
 mccormick2[0,5]: - y[0,5] + r[0,5] <= 0
 mccormick2[0,6]: - y[0,6] + r[0,6] <= 0
 mccormick2[1,0]: - y[1,0] + r[1,0] <= 0
 mccormick2[1,2]: - y[1,2] + r[1,2] <= 0
 mccormick2[1,3]: - y[1,3] + r[1,3] <= 0
 mccormick2[1,4]: - y[1,4] + r[1,4] <= 0
 mccormick2[1,5]: - y[1,5] + r[1,5] <= 0
 mccormick2[1,6]: - y[1,6] + r[1,6] <= 0
 mccormick2[2,0]: - y[2,0] + r[2,0] <= 0
 mccormick2[2,1]: - y[2,1] + r[2,1] <= 0
 mccormick2[2,3]: - y[2,3] + r[2,3] <= 0
 mccormick2[2,4]: - y[2,4] + r[2,4] <= 0
 mccormick2[2,5]: - y[2,5] + r[2,5] <= 0
 mccormick2[2,6]: - y[2,6] + r[2,6] <= 0
 mccormick2[3,0]: - y[3,0] + r[3,0] <= 0
 mccormick2[3,1]: - y[3,1] + r[3,1] <= 0
 mccormick2[3,2]: - y[3,2] + r[3,2] <= 0
 mccormick2[3,5]: - y[3,5] + r[3,5] <= 0
 mccormick2[4,0]: - y[4,0] + r[4,0] <= 0
 mccormick2[4,1]: - y[4,1] + r[4,1] <= 0
 mccormick2[4,2]: - y[4,2] + r[4,2] <= 0
 mccormick2[4,6]: - y[4,6] + r[4,6] <= 0
 mccormick2[5,0]: - y[5,0] + r[5,0] <= 0
 mccormick2[5,1]: - y[5,1] + r[5,1] <= 0
 mccormick2[5,2]: - y[5,2] + r[5,2] <= 0
 mccormick2[5,3]: - y[5,3] + r[5,3] <= 0
 mccormick2[6,0]: - y[6,0] + r[6,0] <= 0
 mccormick2[6,1]: - y[6,1] + r[6,1] <= 0
 mccormick2[6,2]: - y[6,2] + r[6,2] <= 0
 mccormick2[6,4]: - y[6,4] + r[6,4] <= 0
 mccormick3[0,1]: - y[0,1] - u[0,1] + r[0,1] >= -1
 mccormick3[0,2]: - y[0,2] - u[0,2] + r[0,2] >= -1
 mccormick3[0,3]: - y[0,3] - u[0,3] + r[0,3] >= -1
 mccormick3[0,4]: - y[0,4] - u[0,4] + r[0,4] >= -1
 mccormick3[0,5]: - y[0,5] - u[0,5] + r[0,5] >= -1
 mccormick3[0,6]: - y[0,6] - u[0,6] + r[0,6] >= -1
 mccormick3[1,0]: - y[1,0] - u[1,0] + r[1,0] >= -1
 mccormick3[1,2]: - y[1,2] - u[1,2] + r[1,2] >= -1
 mccormick3[1,3]: - y[1,3] - u[1,3] + r[1,3] >= -1
 mccormick3[1,4]: - y[1,4] - u[1,4] + r[1,4] >= -1
 mccormick3[1,5]: - y[1,5] - u[1,5] + r[1,5] >= -1
 mccormick3[1,6]: - y[1,6] - u[1,6] + r[1,6] >= -1
 mccormick3[2,0]: - y[2,0] - u[2,0] + r[2,0] >= -1
 mccormick3[2,1]: - y[2,1] - u[2,1] + r[2,1] >= -1
 mccormick3[2,3]: - y[2,3] - u[2,3] + r[2,3] >= -1
 mccormick3[2,4]: - y[2,4] - u[2,4] + r[2,4] >= -1
 mccormick3[2,5]: - y[2,5] - u[2,5] + r[2,5] >= -1
 mccormick3[2,6]: - y[2,6] - u[2,6] + r[2,6] >= -1
 mccormick3[3,0]: - y[3,0] - u[3,0] + r[3,0] >= -1
 mccormick3[3,1]: - y[3,1] - u[3,1] + r[3,1] >= -1
 mccormick3[3,2]: - y[3,2] - u[3,2] + r[3,2] >= -1
 mccormick3[3,5]: - y[3,5] - u[3,5] + r[3,5] >= -1
 mccormick3[4,0]: - y[4,0] - u[4,0] + r[4,0] >= -1
 mccormick3[4,1]: - y[4,1] - u[4,1] + r[4,1] >= -1
 mccormick3[4,2]: - y[4,2] - u[4,2] + r[4,2] >= -1
 mccormick3[4,6]: - y[4,6] - u[4,6] + r[4,6] >= -1
 mccormick3[5,0]: - y[5,0] - u[5,0] + r[5,0] >= -1
 mccormick3[5,1]: - y[5,1] - u[5,1] + r[5,1] >= -1
 mccormick3[5,2]: - y[5,2] - u[5,2] + r[5,2] >= -1
 mccormick3[5,3]: - y[5,3] - u[5,3] + r[5,3] >= -1
 mccormick3[6,0]: - y[6,0] - u[6,0] + r[6,0] >= -1
 mccormick3[6,1]: - y[6,1] - u[6,1] + r[6,1] >= -1
 mccormick3[6,2]: - y[6,2] - u[6,2] + r[6,2] >= -1
 mccormick3[6,4]: - y[6,4] - u[6,4] + r[6,4] >= -1
Bounds
Binaries
 y[0,1] y[0,2] y[0,3] y[0,4] y[0,5] y[0,6] y[1,0] y[1,2] y[1,3] y[1,4]
 y[1,5] y[1,6] y[2,0] y[2,1] y[2,3] y[2,4] y[2,5] y[2,6] y[3,0] y[3,1]
 y[3,2] y[3,5] y[4,0] y[4,1] y[4,2] y[4,6] y[5,0] y[5,1] y[5,2] y[5,3]
 y[6,0] y[6,1] y[6,2] y[6,4] x[0,1] x[0,2] x[0,3] x[0,4] x[0,5] x[0,6]
 x[1,0] x[1,2] x[1,3] x[1,4] x[1,5] x[1,6] x[2,0] x[2,1] x[2,3] x[2,4]
 x[2,5] x[2,6] x[3,0] x[3,1] x[3,2] x[3,5] x[4,0] x[4,1] x[4,2] x[4,6]
 x[5,0] x[5,1] x[5,2] x[5,3] x[6,0] x[6,1] x[6,2] x[6,4] u[0,1] u[0,2]
 u[0,3] u[0,4] u[0,5] u[0,6] u[1,0] u[1,2] u[1,3] u[1,4] u[1,5] u[1,6]
 u[2,0] u[2,1] u[2,3] u[2,4] u[2,5] u[2,6] u[3,0] u[3,1] u[3,2] u[3,5]
 u[4,0] u[4,1] u[4,2] u[4,6] u[5,0] u[5,1] u[5,2] u[5,3] u[6,0] u[6,1]
 u[6,2] u[6,4] r[0,1] r[0,2] r[0,3] r[0,4] r[0,5] r[0,6] r[1,0] r[1,2]
 r[1,3] r[1,4] r[1,5] r[1,6] r[2,0] r[2,1] r[2,3] r[2,4] r[2,5] r[2,6]
 r[3,0] r[3,1] r[3,2] r[3,5] r[4,0] r[4,1] r[4,2] r[4,6] r[5,0] r[5,1]
 r[5,2] r[5,3] r[6,0] r[6,1] r[6,2] r[6,4]
End
