instances/shortest_path/discrete_knapsack_uncertainty/nohadani_7_5.kp
34299
139

[0.4720901533709098 3.242222335581655 0.986685603788486 2.572581882589551 0.0770844740038335 1.2632331407805515 3.0900462445670818 0.8190036338644083 2.9545845534664164 0.16319330763078552 0.16216591359434113 0.7660424193870037 4.028179577240456 1.4831803637684104 4.02782112101263 2.17850153287841 1.9657463405769373 2.033088952741168 2.1611768075473248 0.6925670273515141 1.7850166303625763 2.6825333894954904 3.0329236791221628 1.1916093114004718 0.018372063323930654 2.8099736587310353 1.0135788616081691 2.3182393219889676 0.5008286965358769 0.8747340977293085 0.8240442491427402 2.4497827532457412 1.340471483435778 0.48648987466264937]

[94 99 61 82 35 20 36 74 16 21 10 2 59 7 99 43 40 51 56 41 36 18 39 89 23 43 49 34 60 46 20 66 30 36]
